container_length = 7500;
container_width = 3600;
container_height = 2100;
n = 8;
boxes = [|300, 375, 275, 31
         |400, 400, 150, 34
         |1200, 300, 200, 23
         |500, 350, 225, 17
         |1500, 200, 275, 30
         |500, 500, 250, 17
         |800, 400, 300, 27
         |200, 200, 200, 21|];
